%%MatrixMarket matrix coordinate integer general
%-------------------------------------------------------------------------------
% notes:
% ------------------------------------------------------------------------------
% It is a matrix of Figure 4.2 of \cite{scott2023algorithms}. Only lower triangular
% part is provided                         
%-------------------------------------------------------------------------------
8 8 16
1 1 1
2 2 1
3 3 1
4 2 1
4 3 1
4 4 1
5 1 1
5 2 1
5 5 1
6 1 1
6 6 1
7 7 1
8 2 1
8 3 1
8 7 1
8 8 1